
{#TODO(pjm): beam parameters need to be fitted to the selected beamline #}
line.add(core.FAKE_ELEM("""
'OBJET'
{{ bunch_rigidity }}
5.1
   1.000000E-03   1.000000E-02   1.000000E-03   1.000000E-02   0.01  1.000000E-04
  0.0 0.0 0.0 0.0 0.0 1.0
  0.0 1 0.0 1 0.0 1 0.0 0.0 0.0 0.0
"""))

line.add(core.FAKE_ELEM("""
'PARTICUL'
{{ particleDef }}
"""))

line.add(core.FAKE_ELEM("""
'OPTIONS'
1 1
WRITE OFF
"""))

line.add(core.FAKE_ELEM("""
'OPTICS'
1 all PRINT
"""))

# need an initial 0 length drift so optics output starts at s=0
line.add(core.DRIFT("START", XL=0))

{{ beamlineElements -}}

line.add(core.END())

with open('zgoubi.dat', 'w') as f:
    f.write(line.output())
